NAME : XML100_3156_20
DIMENSION : 101
NB_CLUSTERS : 4
CLUSTERING_ALG : KMedoids
CLUSTERING_PARAMS : k(3)
CLUSTERS
1 0
2 5 7 8 10 13 14 15 21 25 27 31 32 33 34 37 43 44 46 47 49 52 54 57 59 70 75 78 79 81 83 85 91 95 96 100
3 1 2 4 12 17 18 19 20 22 26 28 29 30 39 40 50 51 53 56 58 60 61 63 64 65 66 67 72 73 74 80 82 84 86 88 90 92 93 99
4 3 6 9 11 16 23 24 35 36 38 41 42 45 48 55 62 68 69 71 76 77 87 89 94 97 98
EOF